/* mf-gen.dat */
param N := 4;
param p := 1;
param q := 4;

/* capa{V,V} の添字(リンクを表すノードの組)と値(リンク容量) */
param capa :=
1 1 0   /* リンクが存在しない場合は容量を0に設定 */
1 2 14
1 3 15
1 4 0
2 1 0
2 2 0
2 3 4
2 4 10
3 1 0
3 2 0
3 3 0
3 4 18
4 1 0
4 2 0
4 3 0
4 4 0
;
end;
